0000000000000000
0000000000000000
0000000000000000
0111100011100000
0000110000100000
0000110001100000
0000011011000000
0000011110000000
0000011110000000
0000110011000000
0001100011000000
0011000001000000
0011110001111000
0000000000000000
0000000000000000
0000000000000000